; benchmark generated from python API
(set-info :status unknown)
(declare-fun strlen_85_64 () (_ BitVec 64))
(declare-fun args_1_8 () (_ BitVec 8))
(declare-fun strlen_83_64 () (_ BitVec 64))
(declare-fun strncmp_ret_84_32 () (_ BitVec 32))
(declare-fun strncmp_ret_86_32 () (_ BitVec 32))
(declare-fun filesize_file_0_/proc/self/loginuid_88_64 () (_ BitVec 64))
(declare-fun syscall_stub_ioctl_95_32 () (_ BitVec 32))
(declare-fun syscall_stub_newfstatat_125_64 () (_ BitVec 64))
(declare-fun syscall_stub_readlink_161_64 () (_ BitVec 64))
(declare-fun strlen_1129_64 () (_ BitVec 64))
(declare-fun mem_7fffffffffef42d_233_3576 () (_ BitVec 3576))
(declare-fun mem_7fffffffffef42c_182_8 () (_ BitVec 8))
(declare-fun mem_7fffffffffef428_178_32 () (_ BitVec 32))
(declare-fun mem_7fffffffffef420_175_64 () (_ BitVec 64))
(declare-fun syscall_stub_newfstatat_256_64 () (_ BitVec 64))
(declare-fun mem_7fffffffffef038_346_64 () (_ BitVec 64))
(declare-fun mem_7fffffffffeefa8_352_64 () (_ BitVec 64))
(declare-fun mem_7fffffffffeefa0_404_64 () (_ BitVec 64))
(declare-fun mem_7fffffffffef030_401_64 () (_ BitVec 64))
(declare-fun mem_7fffffffffef048_437_32 () (_ BitVec 32))
(declare-fun mem_7fffffffffeefc8_488_64 () (_ BitVec 64))
(declare-fun mem_7fffffffffef058_478_64 () (_ BitVec 64))
(declare-fun access_2462_32 () (_ BitVec 32))
(declare-fun access_3287_32 () (_ BitVec 32))
(declare-fun strlen_9066_64 () (_ BitVec 64))
(declare-fun mem_2c_9065_264 () (_ BitVec 264))
(assert
 (let ((?x751 (bvadd (_ bv576460752303357826 64) strlen_85_64)))
 (let (($x69 (= (_ bv0 8) args_1_8)))
 (let ((?x46 (ite $x69 (_ bv576460752303357826 64) (_ bv576460752303357827 64))))
 (= ?x46 ?x751)))))
(assert
 (let ((?x101 (bvadd (_ bv576460752303357826 64) strlen_83_64)))
 (let (($x69 (= (_ bv0 8) args_1_8)))
 (let ((?x46 (ite $x69 (_ bv576460752303357826 64) (_ bv576460752303357827 64))))
 (= ?x46 ?x101)))))
(assert
 (let (($x104 (bvule (_ bv2 64) strlen_83_64)))
 (let (($x48 (= (_ bv2 64) strlen_83_64)))
 (let (($x122 (or $x48 $x104)))
 (let (($x123 (not $x122)))
 (let (($x57 (= (_ bv45 8) args_1_8)))
 (let (($x121 (not $x57)))
 (or $x121 $x123))))))))
(assert
 (= (_ bv1 32) strncmp_ret_84_32))
(assert
 (= (_ bv1 32) strncmp_ret_86_32))
(assert
 true)
(assert
 (let (($x1210 (bvsge (_ bv0 64) filesize_file_0_/proc/self/loginuid_88_64)))
 (let ((?x1217 (ite $x1210 (_ bv0 64) filesize_file_0_/proc/self/loginuid_88_64)))
 (let ((?x1236 ((_ extract 3 0) filesize_file_0_/proc/self/loginuid_88_64)))
 (let ((?x99 (ite $x1210 (_ bv0 4) ?x1236)))
 (let (($x1110 (bvule ?x99 (_ bv12 4))))
 (let ((?x1229 ((_ extract 63 4) filesize_file_0_/proc/self/loginuid_88_64)))
 (let (($x523 (= (_ bv0 60) ?x1229)))
 (let (($x516 (or $x1210 $x523)))
 (let (($x975 (and $x516 $x1110)))
 (let ((?x1169 (ite $x975 ?x1217 (_ bv12 64))))
 (= (_ bv12 64) ?x1169))))))))))))
(assert
 (let ((?x47778 ((_ extract 31 31) syscall_stub_ioctl_95_32)))
 (= (_ bv0 1) ?x47778)))
(assert
 (let (($x2449 (= (_ bv0 32) syscall_stub_ioctl_95_32)))
 (not $x2449)))
(assert
 (let ((?x68076 ((_ extract 31 0) syscall_stub_newfstatat_125_64)))
 (bvule ?x68076 (_ bv4294963200 32))))
(assert
 (= (_ bv17870283321406196703 64) syscall_stub_readlink_161_64))
(assert
 (let ((?x198880 (bvadd (_ bv576460752303354917 64) strlen_1129_64)))
 (let ((?x440501 ((_ extract 3167 3160) mem_7fffffffffef42d_233_3576)))
 (let (($x440555 (= (_ bv0 8) ?x440501)))
 (let ((?x440585 (ite $x440555 (_ bv576460752303354976 64) (_ bv0 64))))
 (let ((?x442961 ((_ extract 3175 3168) mem_7fffffffffef42d_233_3576)))
 (let (($x443145 (= (_ bv0 8) ?x442961)))
 (let ((?x450516 (ite $x443145 (_ bv576460752303354975 64) ?x440585)))
 (let ((?x443052 ((_ extract 3183 3176) mem_7fffffffffef42d_233_3576)))
 (let (($x442933 (= (_ bv0 8) ?x443052)))
 (let ((?x450527 (ite $x442933 (_ bv576460752303354974 64) ?x450516)))
 (let ((?x450634 ((_ extract 3191 3184) mem_7fffffffffef42d_233_3576)))
 (let (($x442980 (= (_ bv0 8) ?x450634)))
 (let ((?x438499 (ite $x442980 (_ bv576460752303354973 64) ?x450527)))
 (let ((?x443069 ((_ extract 3199 3192) mem_7fffffffffef42d_233_3576)))
 (let (($x438624 (= (_ bv0 8) ?x443069)))
 (let ((?x450619 (ite $x438624 (_ bv576460752303354972 64) ?x438499)))
 (let ((?x450617 ((_ extract 3207 3200) mem_7fffffffffef42d_233_3576)))
 (let (($x450370 (= (_ bv0 8) ?x450617)))
 (let ((?x450611 (ite $x450370 (_ bv576460752303354971 64) ?x450619)))
 (let ((?x450595 ((_ extract 3215 3208) mem_7fffffffffef42d_233_3576)))
 (let (($x438552 (= (_ bv0 8) ?x450595)))
 (let ((?x450453 (ite $x438552 (_ bv576460752303354970 64) ?x450611)))
 (let ((?x443140 ((_ extract 3223 3216) mem_7fffffffffef42d_233_3576)))
 (let (($x450517 (= (_ bv0 8) ?x443140)))
 (let ((?x442989 (ite $x450517 (_ bv576460752303354969 64) ?x450453)))
 (let ((?x440727 ((_ extract 3231 3224) mem_7fffffffffef42d_233_3576)))
 (let (($x443083 (= (_ bv0 8) ?x440727)))
 (let ((?x440486 (ite $x443083 (_ bv576460752303354968 64) ?x442989)))
 (let ((?x443064 ((_ extract 3239 3232) mem_7fffffffffef42d_233_3576)))
 (let (($x450515 (= (_ bv0 8) ?x443064)))
 (let ((?x450645 (ite $x450515 (_ bv576460752303354967 64) ?x440486)))
 (let ((?x438506 ((_ extract 3247 3240) mem_7fffffffffef42d_233_3576)))
 (let (($x439447 (= (_ bv0 8) ?x438506)))
 (let ((?x450486 (ite $x439447 (_ bv576460752303354966 64) ?x450645)))
 (let ((?x450424 ((_ extract 3255 3248) mem_7fffffffffef42d_233_3576)))
 (let (($x442943 (= (_ bv0 8) ?x450424)))
 (let ((?x450475 (ite $x442943 (_ bv576460752303354965 64) ?x450486)))
 (let ((?x450484 ((_ extract 3263 3256) mem_7fffffffffef42d_233_3576)))
 (let (($x443074 (= (_ bv0 8) ?x450484)))
 (let ((?x450495 (ite $x443074 (_ bv576460752303354964 64) ?x450475)))
 (let ((?x450576 ((_ extract 3271 3264) mem_7fffffffffef42d_233_3576)))
 (let (($x450567 (= (_ bv0 8) ?x450576)))
 (let ((?x450632 (ite $x450567 (_ bv576460752303354963 64) ?x450495)))
 (let ((?x438756 ((_ extract 3279 3272) mem_7fffffffffef42d_233_3576)))
 (let (($x450422 (= (_ bv0 8) ?x438756)))
 (let ((?x442984 (ite $x450422 (_ bv576460752303354962 64) ?x450632)))
 (let ((?x440499 ((_ extract 3287 3280) mem_7fffffffffef42d_233_3576)))
 (let (($x277306 (= (_ bv0 8) ?x440499)))
 (let ((?x450589 (ite $x277306 (_ bv576460752303354961 64) ?x442984)))
 (let ((?x450642 ((_ extract 3295 3288) mem_7fffffffffef42d_233_3576)))
 (let (($x443019 (= (_ bv0 8) ?x450642)))
 (let ((?x450420 (ite $x443019 (_ bv576460752303354960 64) ?x450589)))
 (let ((?x450440 ((_ extract 3303 3296) mem_7fffffffffef42d_233_3576)))
 (let (($x450371 (= (_ bv0 8) ?x450440)))
 (let ((?x450513 (ite $x450371 (_ bv576460752303354959 64) ?x450420)))
 (let ((?x450570 ((_ extract 3311 3304) mem_7fffffffffef42d_233_3576)))
 (let (($x443026 (= (_ bv0 8) ?x450570)))
 (let ((?x440507 (ite $x443026 (_ bv576460752303354958 64) ?x450513)))
 (let ((?x450493 ((_ extract 3319 3312) mem_7fffffffffef42d_233_3576)))
 (let (($x439869 (= (_ bv0 8) ?x450493)))
 (let ((?x440848 (ite $x439869 (_ bv576460752303354957 64) ?x440507)))
 (let ((?x275919 ((_ extract 3327 3320) mem_7fffffffffef42d_233_3576)))
 (let (($x438590 (= (_ bv0 8) ?x275919)))
 (let ((?x440046 (ite $x438590 (_ bv576460752303354956 64) ?x440848)))
 (let ((?x443037 ((_ extract 3335 3328) mem_7fffffffffef42d_233_3576)))
 (let (($x450408 (= (_ bv0 8) ?x443037)))
 (let ((?x450483 (ite $x450408 (_ bv576460752303354955 64) ?x440046)))
 (let ((?x442992 ((_ extract 3343 3336) mem_7fffffffffef42d_233_3576)))
 (let (($x450615 (= (_ bv0 8) ?x442992)))
 (let ((?x450479 (ite $x450615 (_ bv576460752303354954 64) ?x450483)))
 (let ((?x450494 ((_ extract 3351 3344) mem_7fffffffffef42d_233_3576)))
 (let (($x450564 (= (_ bv0 8) ?x450494)))
 (let ((?x450379 (ite $x450564 (_ bv576460752303354953 64) ?x450479)))
 (let ((?x450489 ((_ extract 3359 3352) mem_7fffffffffef42d_233_3576)))
 (let (($x442967 (= (_ bv0 8) ?x450489)))
 (let ((?x450472 (ite $x442967 (_ bv576460752303354952 64) ?x450379)))
 (let ((?x277177 ((_ extract 3367 3360) mem_7fffffffffef42d_233_3576)))
 (let (($x443058 (= (_ bv0 8) ?x277177)))
 (let ((?x440839 (ite $x443058 (_ bv576460752303354951 64) ?x450472)))
 (let ((?x438588 ((_ extract 3375 3368) mem_7fffffffffef42d_233_3576)))
 (let (($x275116 (= (_ bv0 8) ?x438588)))
 (let ((?x450480 (ite $x275116 (_ bv576460752303354950 64) ?x440839)))
 (let ((?x450553 ((_ extract 3383 3376) mem_7fffffffffef42d_233_3576)))
 (let (($x450507 (= (_ bv0 8) ?x450553)))
 (let ((?x443152 (ite $x450507 (_ bv576460752303354949 64) ?x450480)))
 (let ((?x450367 ((_ extract 3391 3384) mem_7fffffffffef42d_233_3576)))
 (let (($x450572 (= (_ bv0 8) ?x450367)))
 (let ((?x450573 (ite $x450572 (_ bv576460752303354948 64) ?x443152)))
 (let ((?x439919 ((_ extract 3399 3392) mem_7fffffffffef42d_233_3576)))
 (let (($x450600 (= (_ bv0 8) ?x439919)))
 (let ((?x450436 (ite $x450600 (_ bv576460752303354947 64) ?x450573)))
 (let ((?x450650 ((_ extract 3407 3400) mem_7fffffffffef42d_233_3576)))
 (let (($x450388 (= (_ bv0 8) ?x450650)))
 (let ((?x450519 (ite $x450388 (_ bv576460752303354946 64) ?x450436)))
 (let ((?x443079 ((_ extract 3415 3408) mem_7fffffffffef42d_233_3576)))
 (let (($x440487 (= (_ bv0 8) ?x443079)))
 (let ((?x450635 (ite $x440487 (_ bv576460752303354945 64) ?x450519)))
 (let ((?x450530 ((_ extract 3423 3416) mem_7fffffffffef42d_233_3576)))
 (let (($x276204 (= (_ bv0 8) ?x450530)))
 (let ((?x439446 (ite $x276204 (_ bv576460752303354944 64) ?x450635)))
 (let ((?x443049 ((_ extract 3431 3424) mem_7fffffffffef42d_233_3576)))
 (let (($x442985 (= (_ bv0 8) ?x443049)))
 (let ((?x450511 (ite $x442985 (_ bv576460752303354943 64) ?x439446)))
 (let ((?x450623 ((_ extract 3439 3432) mem_7fffffffffef42d_233_3576)))
 (let (($x450438 (= (_ bv0 8) ?x450623)))
 (let ((?x450539 (ite $x450438 (_ bv576460752303354942 64) ?x450511)))
 (let ((?x442997 ((_ extract 3447 3440) mem_7fffffffffef42d_233_3576)))
 (let (($x450605 (= (_ bv0 8) ?x442997)))
 (let ((?x440504 (ite $x450605 (_ bv576460752303354941 64) ?x450539)))
 (let ((?x440719 ((_ extract 3455 3448) mem_7fffffffffef42d_233_3576)))
 (let (($x442964 (= (_ bv0 8) ?x440719)))
 (let ((?x438470 (ite $x442964 (_ bv576460752303354940 64) ?x440504)))
 (let ((?x443022 ((_ extract 3463 3456) mem_7fffffffffef42d_233_3576)))
 (let (($x119629 (= (_ bv0 8) ?x443022)))
 (let ((?x274922 (ite $x119629 (_ bv576460752303354939 64) ?x438470)))
 (let ((?x450459 ((_ extract 3471 3464) mem_7fffffffffef42d_233_3576)))
 (let (($x443067 (= (_ bv0 8) ?x450459)))
 (let ((?x450385 (ite $x443067 (_ bv576460752303354938 64) ?x274922)))
 (let ((?x450403 ((_ extract 3479 3472) mem_7fffffffffef42d_233_3576)))
 (let (($x450592 (= (_ bv0 8) ?x450403)))
 (let ((?x443150 (ite $x450592 (_ bv576460752303354937 64) ?x450385)))
 (let ((?x450640 ((_ extract 3487 3480) mem_7fffffffffef42d_233_3576)))
 (let (($x440705 (= (_ bv0 8) ?x450640)))
 (let ((?x442937 (ite $x440705 (_ bv576460752303354936 64) ?x443150)))
 (let ((?x443128 ((_ extract 3495 3488) mem_7fffffffffef42d_233_3576)))
 (let (($x440151 (= (_ bv0 8) ?x443128)))
 (let ((?x450498 (ite $x440151 (_ bv576460752303354935 64) ?x442937)))
 (let ((?x443012 ((_ extract 3503 3496) mem_7fffffffffef42d_233_3576)))
 (let (($x443160 (= (_ bv0 8) ?x443012)))
 (let ((?x441262 (ite $x443160 (_ bv576460752303354934 64) ?x450498)))
 (let ((?x450404 ((_ extract 3511 3504) mem_7fffffffffef42d_233_3576)))
 (let (($x443155 (= (_ bv0 8) ?x450404)))
 (let ((?x438448 (ite $x443155 (_ bv576460752303354933 64) ?x441262)))
 (let ((?x439917 ((_ extract 3519 3512) mem_7fffffffffef42d_233_3576)))
 (let (($x441244 (= (_ bv0 8) ?x439917)))
 (let ((?x450630 (ite $x441244 (_ bv576460752303354932 64) ?x438448)))
 (let ((?x276629 ((_ extract 3527 3520) mem_7fffffffffef42d_233_3576)))
 (let (($x198844 (= (_ bv0 8) ?x276629)))
 (let ((?x450558 (ite $x198844 (_ bv576460752303354931 64) ?x450630)))
 (let ((?x226031 ((_ extract 3535 3528) mem_7fffffffffef42d_233_3576)))
 (let (($x198843 (= (_ bv0 8) ?x226031)))
 (let ((?x450631 (ite $x198843 (_ bv576460752303354930 64) ?x450558)))
 (let ((?x225604 ((_ extract 3543 3536) mem_7fffffffffef42d_233_3576)))
 (let (($x198836 (= (_ bv0 8) ?x225604)))
 (let ((?x450555 (ite $x198836 (_ bv576460752303354929 64) ?x450631)))
 (let ((?x236409 ((_ extract 3551 3544) mem_7fffffffffef42d_233_3576)))
 (let (($x198842 (= (_ bv0 8) ?x236409)))
 (let ((?x442954 (ite $x198842 (_ bv576460752303354928 64) ?x450555)))
 (let ((?x216913 ((_ extract 3559 3552) mem_7fffffffffef42d_233_3576)))
 (let (($x198839 (= (_ bv0 8) ?x216913)))
 (let ((?x442390 (ite $x198839 (_ bv576460752303354927 64) ?x442954)))
 (let ((?x235527 ((_ extract 3567 3560) mem_7fffffffffef42d_233_3576)))
 (let (($x276976 (= (_ bv0 8) ?x235527)))
 (let ((?x450431 (ite $x276976 (_ bv576460752303354926 64) ?x442390)))
 (let ((?x216134 ((_ extract 3575 3568) mem_7fffffffffef42d_233_3576)))
 (let (($x116807 (= (_ bv0 8) ?x216134)))
 (let ((?x440957 (ite $x116807 (_ bv576460752303354925 64) ?x450431)))
 (let (($x450556 (= (_ bv0 8) mem_7fffffffffef42c_182_8)))
 (let ((?x450518 (ite $x450556 (_ bv576460752303354924 64) ?x440957)))
 (let ((?x117592 ((_ extract 31 24) mem_7fffffffffef428_178_32)))
 (let (($x443030 (= (_ bv0 8) ?x117592)))
 (let ((?x450574 (ite $x443030 (_ bv576460752303354923 64) ?x450518)))
 (let ((?x117435 ((_ extract 23 16) mem_7fffffffffef428_178_32)))
 (let (($x443080 (= (_ bv0 8) ?x117435)))
 (let ((?x450583 (ite $x443080 (_ bv576460752303354922 64) ?x450574)))
 (let ((?x117597 ((_ extract 15 8) mem_7fffffffffef428_178_32)))
 (let (($x450621 (= (_ bv0 8) ?x117597)))
 (let ((?x450369 (ite $x450621 (_ bv576460752303354921 64) ?x450583)))
 (let ((?x117576 ((_ extract 7 0) mem_7fffffffffef428_178_32)))
 (let (($x442966 (= (_ bv0 8) ?x117576)))
 (let ((?x439435 (ite $x442966 (_ bv576460752303354920 64) ?x450369)))
 (let ((?x117542 ((_ extract 63 56) mem_7fffffffffef420_175_64)))
 (let (($x447349 (= (_ bv0 8) ?x117542)))
 (let ((?x439448 (ite $x447349 (_ bv576460752303354919 64) ?x439435)))
 (let ((?x117627 ((_ extract 55 48) mem_7fffffffffef420_175_64)))
 (let (($x446785 (= (_ bv0 8) ?x117627)))
 (let ((?x440618 (ite $x446785 (_ bv576460752303354918 64) ?x439448)))
 (let ((?x117606 ((_ extract 47 40) mem_7fffffffffef420_175_64)))
 (let (($x447312 (= (_ bv0 8) ?x117606)))
 (let ((?x443112 (ite $x447312 (_ bv576460752303354917 64) ?x440618)))
 (= ?x443112 ?x198880))))))))))))))))))))))))))))))))))))))))))))))))))))))))))))))))))))))))))))))))))))))))))))))))))))))))))))))))))))))))))))))))))))))))))))))))))))))))))))))))))))))))))))))))))))))
(assert
 (let ((?x114646 ((_ extract 7 0) mem_7fffffffffef420_175_64)))
 (= (_ bv47 8) ?x114646)))
(assert
 (let ((?x455717 ((_ extract 5 0) strlen_1129_64)))
 (let ((?x455856 (bvadd (_ bv1 6) ?x455717)))
 (let (($x455308 (bvule (_ bv31 64) strlen_1129_64)))
 (let (($x455459 (bvule strlen_1129_64 (_ bv18446744073709551614 64))))
 (let (($x455729 (and $x455459 $x455308)))
 (let ((?x455901 (ite $x455729 (_ bv32 6) ?x455856)))
 (bvule ?x455901 (_ bv32 6)))))))))
(assert
 (let ((?x455456 (bvadd (_ bv1 64) strlen_1129_64)))
 (let (($x455308 (bvule (_ bv31 64) strlen_1129_64)))
 (let (($x455459 (bvule strlen_1129_64 (_ bv18446744073709551614 64))))
 (let (($x455729 (and $x455459 $x455308)))
 (let ((?x455991 (ite $x455729 (_ bv32 64) ?x455456)))
 (bvule (_ bv1 64) ?x455991)))))))
(assert
 (let ((?x117627 ((_ extract 55 48) mem_7fffffffffef420_175_64)))
 (let (($x446785 (= (_ bv0 8) ?x117627)))
 (let ((?x117606 ((_ extract 47 40) mem_7fffffffffef420_175_64)))
 (let (($x447312 (= (_ bv0 8) ?x117606)))
 (let ((?x117542 ((_ extract 63 56) mem_7fffffffffef420_175_64)))
 (let (($x447349 (= (_ bv0 8) ?x117542)))
 (let ((?x117435 ((_ extract 23 16) mem_7fffffffffef428_178_32)))
 (let (($x443080 (= (_ bv0 8) ?x117435)))
 (let ((?x275919 ((_ extract 3327 3320) mem_7fffffffffef42d_233_3576)))
 (let (($x438590 (= (_ bv0 8) ?x275919)))
 (let ((?x276629 ((_ extract 3527 3520) mem_7fffffffffef42d_233_3576)))
 (let (($x198844 (= (_ bv0 8) ?x276629)))
 (let ((?x450484 ((_ extract 3263 3256) mem_7fffffffffef42d_233_3576)))
 (let (($x443074 (= (_ bv0 8) ?x450484)))
 (let ((?x225604 ((_ extract 3543 3536) mem_7fffffffffef42d_233_3576)))
 (let (($x198836 (= (_ bv0 8) ?x225604)))
 (let ((?x216134 ((_ extract 3575 3568) mem_7fffffffffef42d_233_3576)))
 (let (($x116807 (= (_ bv0 8) ?x216134)))
 (let ((?x443037 ((_ extract 3335 3328) mem_7fffffffffef42d_233_3576)))
 (let (($x450408 (= (_ bv0 8) ?x443037)))
 (let ((?x216913 ((_ extract 3559 3552) mem_7fffffffffef42d_233_3576)))
 (let (($x198839 (= (_ bv0 8) ?x216913)))
 (let ((?x450530 ((_ extract 3423 3416) mem_7fffffffffef42d_233_3576)))
 (let (($x276204 (= (_ bv0 8) ?x450530)))
 (let ((?x443012 ((_ extract 3503 3496) mem_7fffffffffef42d_233_3576)))
 (let (($x443160 (= (_ bv0 8) ?x443012)))
 (let ((?x450489 ((_ extract 3359 3352) mem_7fffffffffef42d_233_3576)))
 (let (($x442967 (= (_ bv0 8) ?x450489)))
 (let ((?x440501 ((_ extract 3167 3160) mem_7fffffffffef42d_233_3576)))
 (let (($x440555 (= (_ bv0 8) ?x440501)))
 (let ((?x442961 ((_ extract 3175 3168) mem_7fffffffffef42d_233_3576)))
 (let (($x443145 (= (_ bv0 8) ?x442961)))
 (let ((?x450493 ((_ extract 3319 3312) mem_7fffffffffef42d_233_3576)))
 (let (($x439869 (= (_ bv0 8) ?x450493)))
 (let ((?x438588 ((_ extract 3375 3368) mem_7fffffffffef42d_233_3576)))
 (let (($x275116 (= (_ bv0 8) ?x438588)))
 (let ((?x443069 ((_ extract 3199 3192) mem_7fffffffffef42d_233_3576)))
 (let (($x438624 (= (_ bv0 8) ?x443069)))
 (let ((?x450424 ((_ extract 3255 3248) mem_7fffffffffef42d_233_3576)))
 (let (($x442943 (= (_ bv0 8) ?x450424)))
 (let ((?x443022 ((_ extract 3463 3456) mem_7fffffffffef42d_233_3576)))
 (let (($x119629 (= (_ bv0 8) ?x443022)))
 (let ((?x117597 ((_ extract 15 8) mem_7fffffffffef428_178_32)))
 (let (($x450621 (= (_ bv0 8) ?x117597)))
 (let ((?x450403 ((_ extract 3479 3472) mem_7fffffffffef42d_233_3576)))
 (let (($x450592 (= (_ bv0 8) ?x450403)))
 (let ((?x117592 ((_ extract 31 24) mem_7fffffffffef428_178_32)))
 (let (($x443030 (= (_ bv0 8) ?x117592)))
 (let ((?x440727 ((_ extract 3231 3224) mem_7fffffffffef42d_233_3576)))
 (let (($x443083 (= (_ bv0 8) ?x440727)))
 (let ((?x450459 ((_ extract 3471 3464) mem_7fffffffffef42d_233_3576)))
 (let (($x443067 (= (_ bv0 8) ?x450459)))
 (let ((?x443064 ((_ extract 3239 3232) mem_7fffffffffef42d_233_3576)))
 (let (($x450515 (= (_ bv0 8) ?x443064)))
 (let ((?x443052 ((_ extract 3183 3176) mem_7fffffffffef42d_233_3576)))
 (let (($x442933 (= (_ bv0 8) ?x443052)))
 (let ((?x440499 ((_ extract 3287 3280) mem_7fffffffffef42d_233_3576)))
 (let (($x277306 (= (_ bv0 8) ?x440499)))
 (let ((?x440719 ((_ extract 3455 3448) mem_7fffffffffef42d_233_3576)))
 (let (($x442964 (= (_ bv0 8) ?x440719)))
 (let ((?x443079 ((_ extract 3415 3408) mem_7fffffffffef42d_233_3576)))
 (let (($x440487 (= (_ bv0 8) ?x443079)))
 (let ((?x450595 ((_ extract 3215 3208) mem_7fffffffffef42d_233_3576)))
 (let (($x438552 (= (_ bv0 8) ?x450595)))
 (let ((?x443140 ((_ extract 3223 3216) mem_7fffffffffef42d_233_3576)))
 (let (($x450517 (= (_ bv0 8) ?x443140)))
 (let ((?x450494 ((_ extract 3351 3344) mem_7fffffffffef42d_233_3576)))
 (let (($x450564 (= (_ bv0 8) ?x450494)))
 (let ((?x450650 ((_ extract 3407 3400) mem_7fffffffffef42d_233_3576)))
 (let (($x450388 (= (_ bv0 8) ?x450650)))
 (let ((?x438756 ((_ extract 3279 3272) mem_7fffffffffef42d_233_3576)))
 (let (($x450422 (= (_ bv0 8) ?x438756)))
 (let ((?x450576 ((_ extract 3271 3264) mem_7fffffffffef42d_233_3576)))
 (let (($x450567 (= (_ bv0 8) ?x450576)))
 (let ((?x450404 ((_ extract 3511 3504) mem_7fffffffffef42d_233_3576)))
 (let (($x443155 (= (_ bv0 8) ?x450404)))
 (let ((?x450617 ((_ extract 3207 3200) mem_7fffffffffef42d_233_3576)))
 (let (($x450370 (= (_ bv0 8) ?x450617)))
 (let ((?x277177 ((_ extract 3367 3360) mem_7fffffffffef42d_233_3576)))
 (let (($x443058 (= (_ bv0 8) ?x277177)))
 (let ((?x450367 ((_ extract 3391 3384) mem_7fffffffffef42d_233_3576)))
 (let (($x450572 (= (_ bv0 8) ?x450367)))
 (let ((?x438506 ((_ extract 3247 3240) mem_7fffffffffef42d_233_3576)))
 (let (($x439447 (= (_ bv0 8) ?x438506)))
 (let ((?x236409 ((_ extract 3551 3544) mem_7fffffffffef42d_233_3576)))
 (let (($x198842 (= (_ bv0 8) ?x236409)))
 (let ((?x450440 ((_ extract 3303 3296) mem_7fffffffffef42d_233_3576)))
 (let (($x450371 (= (_ bv0 8) ?x450440)))
 (let ((?x439919 ((_ extract 3399 3392) mem_7fffffffffef42d_233_3576)))
 (let (($x450600 (= (_ bv0 8) ?x439919)))
 (let ((?x226031 ((_ extract 3535 3528) mem_7fffffffffef42d_233_3576)))
 (let (($x198843 (= (_ bv0 8) ?x226031)))
 (let ((?x450634 ((_ extract 3191 3184) mem_7fffffffffef42d_233_3576)))
 (let (($x442980 (= (_ bv0 8) ?x450634)))
 (let ((?x450642 ((_ extract 3295 3288) mem_7fffffffffef42d_233_3576)))
 (let (($x443019 (= (_ bv0 8) ?x450642)))
 (let ((?x235527 ((_ extract 3567 3560) mem_7fffffffffef42d_233_3576)))
 (let (($x276976 (= (_ bv0 8) ?x235527)))
 (let ((?x450553 ((_ extract 3383 3376) mem_7fffffffffef42d_233_3576)))
 (let (($x450507 (= (_ bv0 8) ?x450553)))
 (let ((?x450623 ((_ extract 3439 3432) mem_7fffffffffef42d_233_3576)))
 (let (($x450438 (= (_ bv0 8) ?x450623)))
 (let ((?x439917 ((_ extract 3519 3512) mem_7fffffffffef42d_233_3576)))
 (let (($x441244 (= (_ bv0 8) ?x439917)))
 (let ((?x450640 ((_ extract 3487 3480) mem_7fffffffffef42d_233_3576)))
 (let (($x440705 (= (_ bv0 8) ?x450640)))
 (let ((?x442997 ((_ extract 3447 3440) mem_7fffffffffef42d_233_3576)))
 (let (($x450605 (= (_ bv0 8) ?x442997)))
 (let ((?x442992 ((_ extract 3343 3336) mem_7fffffffffef42d_233_3576)))
 (let (($x450615 (= (_ bv0 8) ?x442992)))
 (let ((?x450570 ((_ extract 3311 3304) mem_7fffffffffef42d_233_3576)))
 (let (($x443026 (= (_ bv0 8) ?x450570)))
 (let ((?x443128 ((_ extract 3495 3488) mem_7fffffffffef42d_233_3576)))
 (let (($x440151 (= (_ bv0 8) ?x443128)))
 (let (($x450556 (= (_ bv0 8) mem_7fffffffffef42c_182_8)))
 (let ((?x443049 ((_ extract 3431 3424) mem_7fffffffffef42d_233_3576)))
 (let (($x442985 (= (_ bv0 8) ?x443049)))
 (let ((?x117576 ((_ extract 7 0) mem_7fffffffffef428_178_32)))
 (let (($x442966 (= (_ bv0 8) ?x117576)))
 (or $x442966 $x442985 $x450556 $x440151 $x443026 $x450615 $x450605 $x440705 $x441244 $x450438 $x450507 $x276976 $x443019 $x442980 $x198843 $x450600 $x450371 $x198842 $x439447 $x450572 $x443058 $x450370 $x443155 $x450567 $x450422 $x450388 $x450564 $x450517 $x438552 $x440487 $x442964 $x277306 $x442933 $x450515 $x443067 $x443083 $x443030 $x450592 $x450621 $x119629 $x442943 $x438624 $x275116 $x439869 $x443145 $x440555 $x442967 $x443160 $x276204 $x198839 $x450408 $x116807 $x198836 $x443074 $x198844 $x438590 $x443080 $x447349 $x447312 $x446785)))))))))))))))))))))))))))))))))))))))))))))))))))))))))))))))))))))))))))))))))))))))))))))))))))))))))))))))))))))))))
(assert
 (let (($x455308 (bvule (_ bv31 64) strlen_1129_64)))
 (let (($x455473 (not $x455308)))
 (let (($x455459 (bvule strlen_1129_64 (_ bv18446744073709551614 64))))
 (let (($x455466 (not $x455459)))
 (let (($x455474 (or $x455466 $x455473)))
 (let (($x455795 (not $x455474)))
 (let ((?x455456 (bvadd (_ bv1 64) strlen_1129_64)))
 (let ((?x455900 ((_ extract 63 6) ?x455456)))
 (let (($x458675 (= (_ bv0 58) ?x455900)))
 (or $x458675 $x455795)))))))))))
(assert
 (let ((?x198876 ((_ extract 31 0) syscall_stub_newfstatat_256_64)))
 (bvule ?x198876 (_ bv4294963200 32))))
(assert
 (= mem_7fffffffffeefa8_352_64 mem_7fffffffffef038_346_64))
(assert
 (= mem_7fffffffffef030_401_64 mem_7fffffffffeefa0_404_64))
(assert
 (let ((?x119414 ((_ extract 15 12) mem_7fffffffffef048_437_32)))
 (= (_ bv2 4) ?x119414)))
(assert
 (= mem_7fffffffffef058_478_64 mem_7fffffffffeefc8_488_64))
(assert
 (= (_ bv4294967295 32) access_2462_32))
(assert
 (= (_ bv4294967295 32) access_3287_32))
(assert
 (let ((?x1756442 (bvadd (_ bv44 64) strlen_9066_64)))
 (let ((?x1756334 ((_ extract 15 8) mem_2c_9065_264)))
 (let (($x1756333 (= (_ bv0 8) ?x1756334)))
 (let ((?x1756336 (ite $x1756333 (_ bv75 64) (_ bv0 64))))
 (let ((?x1756332 ((_ extract 23 16) mem_2c_9065_264)))
 (let (($x1756331 (= (_ bv0 8) ?x1756332)))
 (let ((?x1756335 (ite $x1756331 (_ bv74 64) ?x1756336)))
 (let ((?x1756330 ((_ extract 31 24) mem_2c_9065_264)))
 (let (($x1756329 (= (_ bv0 8) ?x1756330)))
 (let ((?x1756342 (ite $x1756329 (_ bv73 64) ?x1756335)))
 (let ((?x1756328 ((_ extract 39 32) mem_2c_9065_264)))
 (let (($x1756327 (= (_ bv0 8) ?x1756328)))
 (let ((?x1756343 (ite $x1756327 (_ bv72 64) ?x1756342)))
 (let ((?x1756326 ((_ extract 47 40) mem_2c_9065_264)))
 (let (($x1756325 (= (_ bv0 8) ?x1756326)))
 (let ((?x1756344 (ite $x1756325 (_ bv71 64) ?x1756343)))
 (let ((?x1756324 ((_ extract 55 48) mem_2c_9065_264)))
 (let (($x1756323 (= (_ bv0 8) ?x1756324)))
 (let ((?x1756345 (ite $x1756323 (_ bv70 64) ?x1756344)))
 (let ((?x1756322 ((_ extract 63 56) mem_2c_9065_264)))
 (let (($x1756319 (= (_ bv0 8) ?x1756322)))
 (let ((?x1756346 (ite $x1756319 (_ bv69 64) ?x1756345)))
 (let ((?x1756192 ((_ extract 71 64) mem_2c_9065_264)))
 (let (($x1756186 (= (_ bv0 8) ?x1756192)))
 (let ((?x1756347 (ite $x1756186 (_ bv68 64) ?x1756346)))
 (let ((?x1756174 ((_ extract 79 72) mem_2c_9065_264)))
 (let (($x1756165 (= (_ bv0 8) ?x1756174)))
 (let ((?x1756348 (ite $x1756165 (_ bv67 64) ?x1756347)))
 (let ((?x1756156 ((_ extract 87 80) mem_2c_9065_264)))
 (let (($x1756147 (= (_ bv0 8) ?x1756156)))
 (let ((?x1756349 (ite $x1756147 (_ bv66 64) ?x1756348)))
 (let ((?x1756138 ((_ extract 95 88) mem_2c_9065_264)))
 (let (($x1756129 (= (_ bv0 8) ?x1756138)))
 (let ((?x1756350 (ite $x1756129 (_ bv65 64) ?x1756349)))
 (let ((?x1756120 ((_ extract 103 96) mem_2c_9065_264)))
 (let (($x1756111 (= (_ bv0 8) ?x1756120)))
 (let ((?x1756351 (ite $x1756111 (_ bv64 64) ?x1756350)))
 (let ((?x1756102 ((_ extract 111 104) mem_2c_9065_264)))
 (let (($x1756093 (= (_ bv0 8) ?x1756102)))
 (let ((?x1756352 (ite $x1756093 (_ bv63 64) ?x1756351)))
 (let ((?x1756084 ((_ extract 119 112) mem_2c_9065_264)))
 (let (($x1756075 (= (_ bv0 8) ?x1756084)))
 (let ((?x1756353 (ite $x1756075 (_ bv62 64) ?x1756352)))
 (let ((?x1756066 ((_ extract 127 120) mem_2c_9065_264)))
 (let (($x1756057 (= (_ bv0 8) ?x1756066)))
 (let ((?x1756354 (ite $x1756057 (_ bv61 64) ?x1756353)))
 (let ((?x1756048 ((_ extract 135 128) mem_2c_9065_264)))
 (let (($x1756039 (= (_ bv0 8) ?x1756048)))
 (let ((?x1756355 (ite $x1756039 (_ bv60 64) ?x1756354)))
 (let ((?x1756030 ((_ extract 143 136) mem_2c_9065_264)))
 (let (($x1756021 (= (_ bv0 8) ?x1756030)))
 (let ((?x1756356 (ite $x1756021 (_ bv59 64) ?x1756355)))
 (let ((?x1756190 ((_ extract 151 144) mem_2c_9065_264)))
 (let (($x1756195 (= (_ bv0 8) ?x1756190)))
 (let ((?x1756357 (ite $x1756195 (_ bv58 64) ?x1756356)))
 (let ((?x1756198 ((_ extract 159 152) mem_2c_9065_264)))
 (let (($x1756201 (= (_ bv0 8) ?x1756198)))
 (let ((?x1756358 (ite $x1756201 (_ bv57 64) ?x1756357)))
 (let ((?x1756204 ((_ extract 167 160) mem_2c_9065_264)))
 (let (($x1756207 (= (_ bv0 8) ?x1756204)))
 (let ((?x1756359 (ite $x1756207 (_ bv56 64) ?x1756358)))
 (let ((?x1756210 ((_ extract 175 168) mem_2c_9065_264)))
 (let (($x1756213 (= (_ bv0 8) ?x1756210)))
 (let ((?x1756360 (ite $x1756213 (_ bv55 64) ?x1756359)))
 (let ((?x1756216 ((_ extract 183 176) mem_2c_9065_264)))
 (let (($x1756219 (= (_ bv0 8) ?x1756216)))
 (let ((?x1756361 (ite $x1756219 (_ bv54 64) ?x1756360)))
 (let ((?x1756222 ((_ extract 191 184) mem_2c_9065_264)))
 (let (($x1756225 (= (_ bv0 8) ?x1756222)))
 (let ((?x1756362 (ite $x1756225 (_ bv53 64) ?x1756361)))
 (let ((?x1756228 ((_ extract 199 192) mem_2c_9065_264)))
 (let (($x1756231 (= (_ bv0 8) ?x1756228)))
 (let ((?x1756363 (ite $x1756231 (_ bv52 64) ?x1756362)))
 (let ((?x1756234 ((_ extract 207 200) mem_2c_9065_264)))
 (let (($x1756237 (= (_ bv0 8) ?x1756234)))
 (let ((?x1756364 (ite $x1756237 (_ bv51 64) ?x1756363)))
 (let ((?x1756339 ((_ extract 215 208) mem_2c_9065_264)))
 (let (($x1756240 (= (_ bv0 8) ?x1756339)))
 (let ((?x1756365 (ite $x1756240 (_ bv50 64) ?x1756364)))
 (let ((?x1756294 ((_ extract 223 216) mem_2c_9065_264)))
 (let (($x1756297 (= (_ bv0 8) ?x1756294)))
 (let ((?x1756366 (ite $x1756297 (_ bv49 64) ?x1756365)))
 (let ((?x1756249 ((_ extract 231 224) mem_2c_9065_264)))
 (let (($x1756252 (= (_ bv0 8) ?x1756249)))
 (let ((?x1756367 (ite $x1756252 (_ bv48 64) ?x1756366)))
 (let ((?x1756255 ((_ extract 239 232) mem_2c_9065_264)))
 (let (($x1756243 (= (_ bv0 8) ?x1756255)))
 (let ((?x1756368 (ite $x1756243 (_ bv47 64) ?x1756367)))
 (let ((?x1756338 ((_ extract 247 240) mem_2c_9065_264)))
 (let (($x1756246 (= (_ bv0 8) ?x1756338)))
 (let ((?x1756369 (ite $x1756246 (_ bv46 64) ?x1756368)))
 (let ((?x1756340 ((_ extract 255 248) mem_2c_9065_264)))
 (let (($x1756341 (= (_ bv0 8) ?x1756340)))
 (let ((?x1756370 (ite $x1756341 (_ bv45 64) ?x1756369)))
 (let ((?x1756291 ((_ extract 263 256) mem_2c_9065_264)))
 (let (($x1756258 (= (_ bv0 8) ?x1756291)))
 (let ((?x1756371 (ite $x1756258 (_ bv44 64) ?x1756370)))
 (= ?x1756371 ?x1756442)))))))))))))))))))))))))))))))))))))))))))))))))))))))))))))))))))))))))))))))))))))))))))))))))))
(assert
 (let ((?x1997978 ((_ extract 63 5) strlen_9066_64)))
 (= (_ bv0 59) ?x1997978)))
(minimize strncmp_ret_84_32)
(minimize strlen_83_64)
(maximize mem_7fffffffffef42d_233_3576)
(minimize mem_7fffffffffef42c_182_8)
(maximize mem_2c_9065_264)
(minimize syscall_stub_newfstatat_256_64)
(maximize strlen_83_64)
(minimize mem_7fffffffffef058_478_64)
(minimize args_1_8)
(minimize strlen_1129_64)
(minimize access_2462_32)
(minimize mem_7fffffffffeefc8_488_64)
(maximize mem_7fffffffffef428_178_32)
(maximize syscall_stub_readlink_161_64)
(minimize strlen_9066_64)
(maximize mem_7fffffffffef048_437_32)
(maximize strncmp_ret_86_32)
(minimize mem_7fffffffffef038_346_64)
(maximize mem_7fffffffffef038_346_64)
(maximize mem_7fffffffffef42c_182_8)
(minimize mem_7fffffffffef048_437_32)
(maximize filesize_file_0_/proc/self/loginuid_88_64)
(maximize access_3287_32)
(maximize strlen_9066_64)
(minimize syscall_stub_readlink_161_64)
(check-sat)
(get-objectives)
